0,146,103,138,140,70,156,141,136,119,66
146,0,113,195,70,126,98,151,171,192,147
103,113,0,155,22,154,142,144,27,116,87
138,195,155,0,30,136,99,186,45,27,60
140,70,22,30,0,82,125,81,104,124,108
70,126,154,136,82,0,41,26,101,59,125
156,98,142,99,125,41,0,114,182,79,52
141,151,144,186,81,26,114,0,134,131,156
136,171,27,45,104,101,182,134,0,137,135
119,192,116,27,124,59,79,131,137,0,172
66,147,87,60,108,125,52,156,135,172,0
